67296.6
12 8 26 24 90 91 36 51 58 31 87 89 72 68 63 98 43 39 54 17 5 93 49 65 37 35 3 97 23 99 2 66 53 9 55 56 86 44 70 46 32 13 18 4 21 84 6 34 41 1 38 85 88 67 16 25 33 73 29 57 10 40 69 77 47 27 59 79 94 7 45 22 62 52 92 19 95 30 96 28 83 48 81 82 15 11 78 71 14 50 76 61 20 80 74 64 0 60 42 75 
